db/inputs/121282547629179132013253810979212067598.smt2
(set-logic QF_FP)
(declare-const x0 (_ FloatingPoint 11 53))
(declare-const x1 (_ FloatingPoint 11 53))
(declare-const x2 (_ FloatingPoint 11 53))
(declare-const x3 (_ FloatingPoint 11 53))
(declare-const x4 (_ FloatingPoint 11 53))
(declare-const x5 (_ FloatingPoint 11 53))
(declare-const x6 (_ FloatingPoint 11 53))
(declare-const x7 (_ FloatingPoint 11 53))
(declare-const x8 (_ FloatingPoint 11 53))
(declare-const x9 (_ FloatingPoint 11 53))
(declare-const x10 (_ FloatingPoint 11 53))
(declare-const x11 (_ FloatingPoint 11 53))
(declare-const x12 (_ FloatingPoint 11 53))
(declare-const x13 (_ FloatingPoint 11 53))
(declare-const x14 (_ FloatingPoint 11 53))
(declare-const x15 (_ FloatingPoint 11 53))
(declare-const x16 (_ FloatingPoint 11 53))
(declare-const x17 (_ FloatingPoint 11 53))
(declare-const x18 (_ FloatingPoint 11 53))
(declare-const x19 (_ FloatingPoint 11 53))
(declare-const x20 (_ FloatingPoint 11 53))
(declare-const x21 (_ FloatingPoint 11 53))
(declare-const x22 (_ FloatingPoint 11 53))
(declare-const x23 (_ FloatingPoint 11 53))
(declare-const x24 (_ FloatingPoint 11 53))
(declare-const x25 (_ FloatingPoint 11 53))
(declare-const x26 (_ FloatingPoint 11 53))
(assert (fp.gt (fp.div RNE (fp.div RNE (fp.mul RNE x18 x14) (fp.div RNE x12 x16)) (fp.sub RNE (fp.sub RNE x1 x6) (fp.add RNE x18 x11))) (fp.mul RNE (fp.div RNE (fp.div RNE x0 x4) (fp.div RNE x5 x18)) (fp.add RNE (fp.sub RNE x1 x4) (fp.neg x9)))))
(assert (fp.lt (fp.add RNE (fp.sub RNE (fp.add RNE x14 x18) (fp.div RNE x5 x22)) (fp.mul RNE (fp.sub RNE x8 x18) (fp.mul RNE x1 x8))) (fp.add RNE (fp.mul RNE (fp.sub RNE x2 x21) (fp.add RNE x4 x21)) (fp.sub RNE (fp.div RNE x14 x14) (fp.neg x10)))))
(assert (fp.eq (fp.add RNE (fp.add RNE (fp.div RNE x5 x15) (fp.div RNE x1 x20)) (fp.sub RNE (fp.sub RNE x16 x3) (fp.neg x24))) (fp.div RNE (fp.neg (fp.sub RNE x9 x0)) (fp.neg (fp.add RNE x1 x7)))))
(check-sat)
