db/data/121282547629179132013253810979212067598.z3.out
-------------------
2500.841149313
